benchmarks/2018.NIA-sorin/_source/non-lin-ineq4/non-lin-ineq-4.desugared.sol
i*j <= k && i <= 1000
